4	143	143	0	0	0
5	144	103	0	0	0
6	236	184	0	0	0
7	279	240	0	16	16
8	267	244	0	15	15
9	261	225	16	16	32
10	385	250	0	15	15
11	438	308	0	187	187
12	377	309	0	15	15
13	541	331	0	31	31
14	551	402	0	31	31
15	675	362	0	46	46
16	560	418	0	31	31
17	656	408	0	78	78
18	634	420	0	187	187
19	875	496	0	78	78
